\* Probes_Placement_Model *\
Minimize
Total_Cost: Medicao_0 + Medicao_1 + Medicao_101 + Medicao_105 + Medicao_106
 + Medicao_108 + Medicao_110 + Medicao_114 + Medicao_122 + Medicao_13
 + Medicao_130 + Medicao_146 + Medicao_147 + Medicao_148 + Medicao_149
 + Medicao_151 + Medicao_153 + Medicao_157 + Medicao_161 + Medicao_162
 + Medicao_163 + Medicao_165 + Medicao_167 + Medicao_171 + Medicao_179
 + Medicao_187 + Medicao_188 + Medicao_190 + Medicao_194 + Medicao_198
 + Medicao_206 + Medicao_21 + Medicao_222 + Medicao_29 + Medicao_3
 + Medicao_30 + Medicao_32 + Medicao_34 + Medicao_38 + Medicao_46 + Medicao_5
 + Medicao_54 + Medicao_70 + Medicao_71 + Medicao_72 + Medicao_73 + Medicao_75
 + Medicao_79 + Medicao_83 + Medicao_9 + Medicao_91 + Medicao_92 + Medicao_93
 + Medicao_95 + Medicao_97 + Medicao_99
Subject To
Minimo_Sondas_Medicao_0: Medicao_0 + Medicao_148 >= 1
Minimo_Sondas_Medicao_1: Medicao_1 + Medicao_2 + 2 Medicao_99 >= 1
Minimo_Sondas_Medicao_101: Medicao_101 + Medicao_102 + Medicao_103
 + Medicao_104 + 4 Medicao_190 >= 1
Minimo_Sondas_Medicao_105: Medicao_105 + Medicao_71 >= 1
Minimo_Sondas_Medicao_106: Medicao_106 + Medicao_107 + 2 Medicao_93 >= 1
Minimo_Sondas_Medicao_108: Medicao_108 + Medicao_109 + 2 Medicao_32 >= 1
Minimo_Sondas_Medicao_110: Medicao_110 + Medicao_111 + Medicao_112
 + Medicao_113 + 4 Medicao_153 >= 1
Minimo_Sondas_Medicao_114: Medicao_114 + Medicao_115 + Medicao_116
 + Medicao_117 + Medicao_118 + Medicao_119 + Medicao_120 + Medicao_121
 + 8 Medicao_171 >= 1
Minimo_Sondas_Medicao_122: Medicao_122 + Medicao_123 + Medicao_124
 + Medicao_125 + Medicao_126 + Medicao_127 + Medicao_128 + Medicao_129
 + 8 Medicao_13 >= 1
Minimo_Sondas_Medicao_13: 8 Medicao_122 + Medicao_13 + Medicao_14 + Medicao_15
 + Medicao_16 + Medicao_17 + Medicao_18 + Medicao_19 + Medicao_20 >= 1
Minimo_Sondas_Medicao_130: Medicao_130 + Medicao_131 + Medicao_132
 + Medicao_133 + Medicao_134 + Medicao_135 + Medicao_136 + Medicao_137
 + Medicao_138 + Medicao_139 + Medicao_140 + Medicao_141 + Medicao_142
 + Medicao_143 + Medicao_144 + Medicao_145 + 16 Medicao_206 >= 1
Minimo_Sondas_Medicao_146: Medicao_146 + Medicao_92 >= 1
Minimo_Sondas_Medicao_147: Medicao_147 + Medicao_161 >= 1
Minimo_Sondas_Medicao_148: Medicao_0 + Medicao_148 >= 1
Minimo_Sondas_Medicao_149: Medicao_149 + Medicao_150 + 2 Medicao_73 >= 1
Minimo_Sondas_Medicao_151: Medicao_151 + Medicao_152 + 2 Medicao_188 >= 1
Minimo_Sondas_Medicao_153: 4 Medicao_110 + Medicao_153 + Medicao_154
 + Medicao_155 + Medicao_156 >= 1
Minimo_Sondas_Medicao_157: Medicao_157 + Medicao_158 + Medicao_159
 + Medicao_160 + 4 Medicao_34 >= 1
Minimo_Sondas_Medicao_161: Medicao_147 + Medicao_161 >= 1
Minimo_Sondas_Medicao_162: Medicao_162 + Medicao_187 >= 1
Minimo_Sondas_Medicao_163: Medicao_163 + Medicao_164 + 2 Medicao_97 >= 1
Minimo_Sondas_Medicao_165: Medicao_165 + Medicao_166 + 2 Medicao_3 >= 1
Minimo_Sondas_Medicao_167: Medicao_167 + Medicao_168 + Medicao_169
 + Medicao_170 + 4 Medicao_75 >= 1
Minimo_Sondas_Medicao_171: 8 Medicao_114 + Medicao_171 + Medicao_172
 + Medicao_173 + Medicao_174 + Medicao_175 + Medicao_176 + Medicao_177
 + Medicao_178 >= 1
Minimo_Sondas_Medicao_179: Medicao_179 + Medicao_180 + Medicao_181
 + Medicao_182 + Medicao_183 + Medicao_184 + Medicao_185 + Medicao_186
 + 8 Medicao_38 >= 1
Minimo_Sondas_Medicao_187: Medicao_162 + Medicao_187 >= 1
Minimo_Sondas_Medicao_188: 2 Medicao_151 + Medicao_188 + Medicao_189 >= 1
Minimo_Sondas_Medicao_190: 4 Medicao_101 + Medicao_190 + Medicao_191
 + Medicao_192 + Medicao_193 >= 1
Minimo_Sondas_Medicao_194: Medicao_194 + Medicao_195 + Medicao_196
 + Medicao_197 + 4 Medicao_9 >= 1
Minimo_Sondas_Medicao_198: Medicao_198 + Medicao_199 + Medicao_200
 + Medicao_201 + Medicao_202 + Medicao_203 + Medicao_204 + Medicao_205
 + 8 Medicao_83 >= 1
Minimo_Sondas_Medicao_206: 16 Medicao_130 + Medicao_206 + Medicao_207
 + Medicao_208 + Medicao_209 + Medicao_210 + Medicao_211 + Medicao_212
 + Medicao_213 + Medicao_214 + Medicao_215 + Medicao_216 + Medicao_217
 + Medicao_218 + Medicao_219 + Medicao_220 + Medicao_221 >= 1
Minimo_Sondas_Medicao_21: Medicao_21 + Medicao_22 + Medicao_23 + Medicao_24
 + Medicao_25 + Medicao_26 + Medicao_27 + Medicao_28 + 8 Medicao_46 >= 1
Minimo_Sondas_Medicao_29: Medicao_29 + Medicao_72 >= 1
Minimo_Sondas_Medicao_3: 2 Medicao_165 + Medicao_3 + Medicao_4 >= 1
Minimo_Sondas_Medicao_30: Medicao_30 + Medicao_31 + 2 Medicao_95 >= 1
Minimo_Sondas_Medicao_32: 2 Medicao_108 + Medicao_32 + Medicao_33 >= 1
Minimo_Sondas_Medicao_34: 4 Medicao_157 + Medicao_34 + Medicao_35 + Medicao_36
 + Medicao_37 >= 1
Minimo_Sondas_Medicao_38: 8 Medicao_179 + Medicao_38 + Medicao_39 + Medicao_40
 + Medicao_41 + Medicao_42 + Medicao_43 + Medicao_44 + Medicao_45 >= 1
Minimo_Sondas_Medicao_46: 8 Medicao_21 + Medicao_46 + Medicao_47 + Medicao_48
 + Medicao_49 + Medicao_50 + Medicao_51 + Medicao_52 + Medicao_53 >= 1
Minimo_Sondas_Medicao_5: Medicao_5 + Medicao_6 + Medicao_7 + 4 Medicao_79
 + Medicao_8 >= 1
Minimo_Sondas_Medicao_54: 16 Medicao_222 + Medicao_54 + Medicao_55
 + Medicao_56 + Medicao_57 + Medicao_58 + Medicao_59 + Medicao_60 + Medicao_61
 + Medicao_62 + Medicao_63 + Medicao_64 + Medicao_65 + Medicao_66 + Medicao_67
 + Medicao_68 + Medicao_69 >= 1
Minimo_Sondas_Medicao_70: Medicao_70 + Medicao_91 >= 1
Minimo_Sondas_Medicao_71: Medicao_105 + Medicao_71 >= 1
Minimo_Sondas_Medicao_72: Medicao_29 + Medicao_72 >= 1
Minimo_Sondas_Medicao_73: 2 Medicao_149 + Medicao_73 + Medicao_74 >= 1
Minimo_Sondas_Medicao_75: 4 Medicao_167 + Medicao_75 + Medicao_76 + Medicao_77
 + Medicao_78 >= 1
Minimo_Sondas_Medicao_79: 4 Medicao_5 + Medicao_79 + Medicao_80 + Medicao_81
 + Medicao_82 >= 1
Minimo_Sondas_Medicao_83: 8 Medicao_198 + Medicao_83 + Medicao_84 + Medicao_85
 + Medicao_86 + Medicao_87 + Medicao_88 + Medicao_89 + Medicao_90 >= 1
Minimo_Sondas_Medicao_9: Medicao_10 + Medicao_11 + Medicao_12 + 4 Medicao_194
 + Medicao_9 >= 1
Minimo_Sondas_Medicao_91: Medicao_70 + Medicao_91 >= 1
Minimo_Sondas_Medicao_92: Medicao_146 + Medicao_92 >= 1
Minimo_Sondas_Medicao_93: 2 Medicao_106 + Medicao_93 + Medicao_94 >= 1
Minimo_Sondas_Medicao_95: 2 Medicao_30 + Medicao_95 + Medicao_96 >= 1
Minimo_Sondas_Medicao_97: 2 Medicao_163 + Medicao_97 + Medicao_98 >= 1
Minimo_Sondas_Medicao_99: 2 Medicao_1 + Medicao_100 + Medicao_99 >= 1
Binaries
Medicao_0
Medicao_1
Medicao_10
Medicao_100
Medicao_101
Medicao_102
Medicao_103
Medicao_104
Medicao_105
Medicao_106
Medicao_107
Medicao_108
Medicao_109
Medicao_11
Medicao_110
Medicao_111
Medicao_112
Medicao_113
Medicao_114
Medicao_115
Medicao_116
Medicao_117
Medicao_118
Medicao_119
Medicao_12
Medicao_120
Medicao_121
Medicao_122
Medicao_123
Medicao_124
Medicao_125
Medicao_126
Medicao_127
Medicao_128
Medicao_129
Medicao_13
Medicao_130
Medicao_131
Medicao_132
Medicao_133
Medicao_134
Medicao_135
Medicao_136
Medicao_137
Medicao_138
Medicao_139
Medicao_14
Medicao_140
Medicao_141
Medicao_142
Medicao_143
Medicao_144
Medicao_145
Medicao_146
Medicao_147
Medicao_148
Medicao_149
Medicao_15
Medicao_150
Medicao_151
Medicao_152
Medicao_153
Medicao_154
Medicao_155
Medicao_156
Medicao_157
Medicao_158
Medicao_159
Medicao_16
Medicao_160
Medicao_161
Medicao_162
Medicao_163
Medicao_164
Medicao_165
Medicao_166
Medicao_167
Medicao_168
Medicao_169
Medicao_17
Medicao_170
Medicao_171
Medicao_172
Medicao_173
Medicao_174
Medicao_175
Medicao_176
Medicao_177
Medicao_178
Medicao_179
Medicao_18
Medicao_180
Medicao_181
Medicao_182
Medicao_183
Medicao_184
Medicao_185
Medicao_186
Medicao_187
Medicao_188
Medicao_189
Medicao_19
Medicao_190
Medicao_191
Medicao_192
Medicao_193
Medicao_194
Medicao_195
Medicao_196
Medicao_197
Medicao_198
Medicao_199
Medicao_2
Medicao_20
Medicao_200
Medicao_201
Medicao_202
Medicao_203
Medicao_204
Medicao_205
Medicao_206
Medicao_207
Medicao_208
Medicao_209
Medicao_21
Medicao_210
Medicao_211
Medicao_212
Medicao_213
Medicao_214
Medicao_215
Medicao_216
Medicao_217
Medicao_218
Medicao_219
Medicao_22
Medicao_220
Medicao_221
Medicao_222
Medicao_23
Medicao_24
Medicao_25
Medicao_26
Medicao_27
Medicao_28
Medicao_29
Medicao_3
Medicao_30
Medicao_31
Medicao_32
Medicao_33
Medicao_34
Medicao_35
Medicao_36
Medicao_37
Medicao_38
Medicao_39
Medicao_4
Medicao_40
Medicao_41
Medicao_42
Medicao_43
Medicao_44
Medicao_45
Medicao_46
Medicao_47
Medicao_48
Medicao_49
Medicao_5
Medicao_50
Medicao_51
Medicao_52
Medicao_53
Medicao_54
Medicao_55
Medicao_56
Medicao_57
Medicao_58
Medicao_59
Medicao_6
Medicao_60
Medicao_61
Medicao_62
Medicao_63
Medicao_64
Medicao_65
Medicao_66
Medicao_67
Medicao_68
Medicao_69
Medicao_7
Medicao_70
Medicao_71
Medicao_72
Medicao_73
Medicao_74
Medicao_75
Medicao_76
Medicao_77
Medicao_78
Medicao_79
Medicao_8
Medicao_80
Medicao_81
Medicao_82
Medicao_83
Medicao_84
Medicao_85
Medicao_86
Medicao_87
Medicao_88
Medicao_89
Medicao_9
Medicao_90
Medicao_91
Medicao_92
Medicao_93
Medicao_94
Medicao_95
Medicao_96
Medicao_97
Medicao_98
Medicao_99
End
